proyfinal/src/viki/013/experimentInOfficeAgust.take6.output/169a9ec7-6ff4-4d85-b056-693a81ec8cce.als.out
Reading from standard input... Use '--help' for help.
============================[ Problem Statistics ]=============================
|                                                                             |
|  Number of variables:         87638                                         |
|  Number of clauses:          161767                                         |
|  Parse time:                   0.04 s                                       |
|                                                                             |
============================[ Search Statistics ]==============================
| Conflicts |          ORIGINAL         |          LEARNT          | Progress |
|           |    Vars  Clauses Literals |    Limit  Clauses Lit/Cl |          |
===============================================================================
|       100 |   62363   105142   262665 |    38552      100     12 | 28.840 % |
|       250 |   62363   105142   262665 |    42407      250     44 | 28.840 % |
|       475 |   62362   105098   262575 |    46648      474     74 | 28.841 % |
|       812 |   62342   105014   262382 |    51312      810     66 | 28.864 % |
|      1318 |   62322   104982   262294 |    56444     1255     78 | 28.887 % |
|      2077 |   62304   104860   261991 |    62088     1929     99 | 28.908 % |
|      3216 |   62304   104860   261991 |    68297     3068    105 | 28.908 % |
|      4924 |   62300   104844   261947 |    75127     4723    105 | 28.912 % |
|      7486 |   62234   104617   261442 |    82639     7008     94 | 28.987 % |
|     11330 |   62234   104539   261252 |    90903    10307     95 | 28.987 % |
===============================================================================
restarts              : 55
conflicts             : 12600          (6399 /sec)
decisions             : 42739          (0.00 % random) (21705 /sec)
propagations          : 18067974       (9175995 /sec)
conflict literals     : 1075959        (52.50 % deleted)
Memory used           : 34.22 MB
CPU time              : 1.96905 s

UNSATISFIABLE
